c "876821.clq"
p edge 100 384
e 1 5
e 1 6
e 1 7
e 1 11
e 1 17
e 1 25
e 1 27
e 1 30
e 1 32
e 1 92
e 1 93
e 2 5
e 2 13
e 2 47
e 2 66
e 2 68
e 2 74
e 3 5
e 3 6
e 3 7
e 3 8
e 3 9
e 3 12
e 3 14
e 3 15
e 3 16
e 3 17
e 3 23
e 3 24
e 3 30
e 3 33
e 3 34
e 3 42
e 3 46
e 3 54
e 3 55
e 3 58
e 3 60
e 3 69
e 3 72
e 3 74
e 3 83
e 3 90
e 3 97
e 4 5
e 4 6
e 4 8
e 4 9
e 4 12
e 4 13
e 4 17
e 4 19
e 4 22
e 4 30
e 4 31
e 4 43
e 4 49
e 4 67
e 4 71
e 4 87
e 5 6
e 5 7
e 5 8
e 5 9
e 5 10
e 5 11
e 5 12
e 5 14
e 5 16
e 5 19
e 5 20
e 5 21
e 5 22
e 5 23
e 5 24
e 5 26
e 5 28
e 5 34
e 5 35
e 5 43
e 5 46
e 5 57
e 5 59
e 5 60
e 5 63
e 5 81
e 5 84
e 5 88
e 5 97
e 5 100
e 6 7
e 6 9
e 6 10
e 6 11
e 6 13
e 6 14
e 6 15
e 6 16
e 6 17
e 6 19
e 6 21
e 6 23
e 6 34
e 6 37
e 6 38
e 6 41
e 6 45
e 6 47
e 6 57
e 6 61
e 6 71
e 6 72
e 6 77
e 6 79
e 6 80
e 6 81
e 6 87
e 7 8
e 7 11
e 7 18
e 7 21
e 7 28
e 7 36
e 7 39
e 7 44
e 7 53
e 7 63
e 7 64
e 7 73
e 7 78
e 7 100
e 8 10
e 8 13
e 8 18
e 8 27
e 8 35
e 8 36
e 8 63
e 8 64
e 8 70
e 8 88
e 9 10
e 9 12
e 9 18
e 9 20
e 9 21
e 9 22
e 9 24
e 9 26
e 9 27
e 9 28
e 9 29
e 9 30
e 9 31
e 9 32
e 9 33
e 9 37
e 9 41
e 9 51
e 9 53
e 9 60
e 9 67
e 9 69
e 9 71
e 9 73
e 9 74
e 9 85
e 9 93
e 9 98
e 9 99
e 10 15
e 10 19
e 11 39
e 11 42
e 11 47
e 11 48
e 11 51
e 11 87
e 11 98
e 12 14
e 12 15
e 12 16
e 12 25
e 12 37
e 12 38
e 12 39
e 12 49
e 12 59
e 12 62
e 12 73
e 12 76
e 12 85
e 12 89
e 12 95
e 12 100
e 13 24
e 13 26
e 13 32
e 13 38
e 13 41
e 13 44
e 13 56
e 13 61
e 13 66
e 13 76
e 13 81
e 14 20
e 14 36
e 14 41
e 14 50
e 14 63
e 14 70
e 14 76
e 14 96
e 15 23
e 15 25
e 15 31
e 15 36
e 15 40
e 15 43
e 15 50
e 15 58
e 15 60
e 16 18
e 16 26
e 16 32
e 16 42
e 16 54
e 16 79
e 17 20
e 17 56
e 17 57
e 17 65
e 17 77
e 17 92
e 18 53
e 18 79
e 19 29
e 19 52
e 20 25
e 20 45
e 20 46
e 20 62
e 20 90
e 21 22
e 21 40
e 21 48
e 21 53
e 21 55
e 21 66
e 21 77
e 21 96
e 22 29
e 22 33
e 22 37
e 22 39
e 22 45
e 22 52
e 22 91
e 23 28
e 23 40
e 23 48
e 23 78
e 23 86
e 24 79
e 25 38
e 25 65
e 26 27
e 26 31
e 26 64
e 26 85
e 27 29
e 27 34
e 27 35
e 27 61
e 27 65
e 27 69
e 27 87
e 28 46
e 28 54
e 28 58
e 28 80
e 28 88
e 29 33
e 29 35
e 29 75
e 29 85
e 30 43
e 31 42
e 31 48
e 31 55
e 31 56
e 31 75
e 31 78
e 31 80
e 31 91
e 31 98
e 33 40
e 33 57
e 33 62
e 33 65
e 33 82
e 34 52
e 34 77
e 35 59
e 36 44
e 36 52
e 37 74
e 37 99
e 38 67
e 38 83
e 38 89
e 38 90
e 38 99
e 40 51
e 40 58
e 40 68
e 40 96
e 41 45
e 41 56
e 41 61
e 41 82
e 42 47
e 42 51
e 42 59
e 42 67
e 42 68
e 42 75
e 42 99
e 43 44
e 43 64
e 43 83
e 43 88
e 43 91
e 44 50
e 44 84
e 45 49
e 45 89
e 46 49
e 46 54
e 46 75
e 46 81
e 46 84
e 46 98
e 47 72
e 48 50
e 48 62
e 48 70
e 49 86
e 50 66
e 51 83
e 52 72
e 52 95
e 53 68
e 53 73
e 53 78
e 54 55
e 55 97
e 57 69
e 57 82
e 57 84
e 57 94
e 58 92
e 58 94
e 59 82
e 59 92
e 59 94
e 63 71
e 64 93
e 65 76
e 67 70
e 72 94
e 73 97
e 76 80
e 77 90
e 77 96
e 78 93
e 78 100
e 81 86
e 81 91
e 81 95
e 83 86
e 83 89
e 84 95
